50
    25    99    80    22     5    98    35    39    76    65    34    47    87    19    21    22     2    16     5    28    98    56    61    23    71    78    27    52    30    61    10    55     3    26    81    58    30    34    76    82    68    86    99    35    90    25    17    17    85    34
    10     7     9     1     8     4     1     2     2     1     8     7     9     2     7     5     1     1     3     6     4     7     2     3     2    10     9     9     9     1     8     4     6     4     5     4    10     7     2     2    10     7     5     1     1     6     7     7     4     7
   601    50   181   564   539   107   344   343   361   874   219   112   230   311   914   479    53   501     4   185   222   328   167    12   929   107   134   488    44     3   450    65    81   837   162   459   334   588   671    57    15   939   506   217   919   912   131   574    36   543
